0000000000000000
0000000000000000
0000000111111100
0000000111111100
0000000000001000
0000000000001000
0000000000001000
0000000000001000
0000000000001000
0000000000001000
0000000000001000
0000000000001000
0000000000000000
0000000000000000
0000000000000000
0000000000000000
